Reading model...
...model read.
creating competitive generators file...
...competitive generators recorded.
Loading data...
.. real-time data read.
Compiling instance...
...instance created.
Creating Offer Mitigation (model will solve as dispatch if TRUE)...
...storage offer mitigation file created
Converting model to MPEC...
...converted
NOTE: initial MIP solve with only storage competitive to get feasible solution
Solving...

Welcome to IBM(R) ILOG(R) CPLEX(R) Interactive Optimizer 12.10.0.0
  with Simplex, Mixed Integer & Barrier Optimizers
5725-A06 5725-A29 5724-Y48 5724-Y49 5724-Y54 5724-Y55 5655-Y21
Copyright IBM Corp. 1988, 2019.  All Rights Reserved.

Type 'help' for a list of available commands.
Type 'help' followed by a command name for more
information on commands.

CPLEX> Logfile 'cplex.log' closed.
Logfile 'C:\Users\wenmi\Desktop\competitiveMPEC\logs\tmpq7hs8h20.cplex.log' open.
CPLEX> New value for parallel optimization mode: -1
CPLEX> New value for mixed integer optimality gap tolerance: 0.01
CPLEX> New value for feasibility tolerance: 1e-09
CPLEX> New value for deterministic time limit in ticks: 50000
CPLEX> Problem 'C:\Users\wenmi\Desktop\competitiveMPEC\logs\tmpbe8y_j77.pyomo.lp' read.
Read time = 0.33 sec. (27.71 ticks)
CPLEX> Problem name         : C:\Users\wenmi\Desktop\competitiveMPEC\logs\tmpbe8y_j77.pyomo.lp
Objective sense      : Maximize
Variables            :  107781  [Nneg: 1,  Box: 44056,  Free: 8928,
                                 Binary: 54796]
Objective nonzeros   :   17604
Linear constraints   :  246901  [Less: 82866,  Greater: 118424,  Equal: 45611]
  Nonzeros           :  590415
  RHS nonzeros       :  134773

Variables            : Min LB: -5000.000        Max UB: 1000000.       
Objective nonzeros   : Min   : 5.500000e-07     Max   : 208.3333       
Linear constraints   :
  Nonzeros           : Min   : 0.008333333      Max   : 1000000.       
  RHS nonzeros       : Min   : 5.500000e-07     Max   : 1000000.       
CPLEX> Version identifier: 12.10.0.0 | 2019-11-26 | 843d4de2ae
CPXPARAM_Parallel                                -1
CPXPARAM_Simplex_Tolerances_Feasibility          1.0000000000000001e-09
CPXPARAM_DetTimeLimit                            50000
CPXPARAM_MIP_Tolerances_MIPGap                   0.01
Tried aggregator 3 times.
MIP Presolve eliminated 180713 rows and 40665 columns.
MIP Presolve added 6226 rows and 0 columns.
MIP Presolve modified 49188 coefficients.
Aggregator did 25920 substitutions.
Reduced MIP has 46494 rows, 39698 columns, and 135928 nonzeros.
Reduced MIP has 15652 binaries, 0 generals, 0 SOSs, and 0 indicators.
Presolve time = 0.34 sec. (332.33 ticks)
Probing fixed 792 vars, tightened 8664 bounds.
Probing time = 0.09 sec. (18.13 ticks)
Tried aggregator 2 times.
Detecting symmetries...
MIP Presolve eliminated 1778 rows and 1585 columns.
MIP Presolve modified 5568 coefficients.
Aggregator did 48 substitutions.
Reduced MIP has 44668 rows, 38065 columns, and 130638 nonzeros.
Reduced MIP has 14860 binaries, 0 generals, 0 SOSs, and 0 indicators.
Presolve time = 0.14 sec. (219.03 ticks)
Probing fixed 1 vars, tightened 440 bounds.
Probing time = 0.16 sec. (25.70 ticks)
Clique table members: 88137.
MIP emphasis: balance optimality and feasibility.
MIP search method: dynamic search.
Parallel mode: opportunistic, using up to 16 threads.
Root relaxation solution time = 0.52 sec. (1724.04 ticks)

        Nodes                                         Cuts/
   Node  Left     Objective  IInf  Best Integer    Best Bound    ItCnt     Gap

      0     0        0.0000     2                      0.0000     9233         
*     0+    0                            0.0000        0.0000             0.00%
      0     0        cutoff              0.0000        0.0000     9233    0.00%
Elapsed time = 1.67 sec. (2768.75 ticks, tree = 0.01 MB, solutions = 1)

Root node processing (before b&c):
  Real time             =    1.69 sec. (2772.59 ticks)
Parallel b&c, 16 threads:
  Real time             =    0.00 sec. (0.00 ticks)
  Sync time (average)   =    0.00 sec.
  Wait time (average)   =    0.00 sec.
                          ------------
Total (root+branch&cut) =    1.69 sec. (2772.59 ticks)

Solution pool: 1 solution saved.

MIP - Integer optimal solution:  Objective =  0.0000000000e+00
Solution time =    1.69 sec.  Iterations = 9233  Nodes = 0
Deterministic time = 2772.90 ticks  (1642.71 ticks/sec)

CPLEX> Incumbent solution written to file 'C:\Users\wenmi\Desktop\competitiveMPEC\logs\tmpayl91zvz.cplex.sol'.
CPLEX> NOTE: no warmstart specified for MIP iteration, default behavior is true
NOTE: resolving with all competitive generators using storage-only solution to warmstart
Solving...

Welcome to IBM(R) ILOG(R) CPLEX(R) Interactive Optimizer 12.10.0.0
  with Simplex, Mixed Integer & Barrier Optimizers
5725-A06 5725-A29 5724-Y48 5724-Y49 5724-Y54 5724-Y55 5655-Y21
Copyright IBM Corp. 1988, 2019.  All Rights Reserved.

Type 'help' for a list of available commands.
Type 'help' followed by a command name for more
information on commands.

CPLEX> Logfile 'cplex.log' closed.
Logfile 'C:\Users\wenmi\Desktop\competitiveMPEC\logs\tmp240rnok1.cplex.log' open.
CPLEX> New value for parallel optimization mode: -1
CPLEX> New value for mixed integer optimality gap tolerance: 0.01
CPLEX> New value for feasibility tolerance: 1e-09
CPLEX> New value for deterministic time limit in ticks: 50000
CPLEX> Problem 'C:\Users\wenmi\Desktop\competitiveMPEC\logs\tmpw7x7k7ge.pyomo.lp' read.
Read time = 0.31 sec. (27.75 ticks)
CPLEX> MIP start file 'C:\Users\wenmi\Desktop\competitiveMPEC\logs\tmphhy5i2vi.cplex.mst' read.
CPLEX> Problem name         : C:\Users\wenmi\Desktop\competitiveMPEC\logs\tmpw7x7k7ge.pyomo.lp
Objective sense      : Maximize
Variables            :  109221  [Nneg: 1,  Box: 45496,  Free: 8928,
                                 Binary: 54796]
Objective nonzeros   :   18996
Linear constraints   :  246901  [Less: 82866,  Greater: 118424,  Equal: 45611]
  Nonzeros           :  590415
  RHS nonzeros       :  134773

Variables            : Min LB: -5000.000        Max UB: 1000000.       
Objective nonzeros   : Min   : 5.500000e-07     Max   : 208.3333       
Linear constraints   :
  Nonzeros           : Min   : 0.008333333      Max   : 1000000.       
  RHS nonzeros       : Min   : 5.500000e-07     Max   : 1000000.       
CPLEX> Version identifier: 12.10.0.0 | 2019-11-26 | 843d4de2ae
CPXPARAM_Parallel                                -1
CPXPARAM_Simplex_Tolerances_Feasibility          1.0000000000000001e-09
CPXPARAM_DetTimeLimit                            50000
CPXPARAM_MIP_Tolerances_MIPGap                   0.01
1 of 1 MIP starts provided solutions.
MIP start 'm1' defined initial solution with objective 0.0000.
Tried aggregator 3 times.
MIP Presolve eliminated 180713 rows and 42105 columns.
MIP Presolve added 6226 rows and 0 columns.
MIP Presolve modified 49188 coefficients.
Aggregator did 25920 substitutions.
Reduced MIP has 46494 rows, 39698 columns, and 135928 nonzeros.
Reduced MIP has 15652 binaries, 0 generals, 0 SOSs, and 0 indicators.
Presolve time = 0.34 sec. (333.03 ticks)
Probing fixed 792 vars, tightened 8664 bounds.
Probing time = 0.09 sec. (18.13 ticks)
Tried aggregator 2 times.
Detecting symmetries...
MIP Presolve eliminated 1778 rows and 1585 columns.
MIP Presolve modified 5568 coefficients.
Aggregator did 48 substitutions.
Reduced MIP has 44668 rows, 38065 columns, and 130638 nonzeros.
Reduced MIP has 14860 binaries, 0 generals, 0 SOSs, and 0 indicators.
Presolve time = 0.17 sec. (219.04 ticks)
Probing fixed 1 vars, tightened 425 bounds.
Probing time = 0.17 sec. (23.55 ticks)
Clique table members: 88577.
MIP emphasis: balance optimality and feasibility.
MIP search method: dynamic search.
Parallel mode: opportunistic, using up to 16 threads.
Root relaxation solution time = 0.72 sec. (1857.92 ticks)

        Nodes                                         Cuts/
   Node  Left     Objective  IInf  Best Integer    Best Bound    ItCnt     Gap

*     0+    0                            0.0000   1.03852e+07              --- 
      0     0    20682.4535   522        0.0000    20682.4535    10777     --- 
      0     0    19100.4697   522        0.0000     Cuts: 422    11369     --- 
      0     0    19099.1039   522        0.0000     Cuts: 450    11571     --- 
      0     0    19099.1039   522        0.0000     Cuts: 575    11686     --- 
      0     0    19099.1039   522        0.0000     Cuts: 257    11728     --- 
      0     0    19098.1278   522        0.0000       Cuts: 9    11734     --- 
      0     0    18967.0313   522        0.0000     Cuts: 281    11746     --- 
      0     0    18967.0313   522        0.0000      Cuts: 32    11778     --- 
      0     0    18967.0313   522        0.0000    MIRcuts: 1    11791     --- 
      0     2    18967.0313   189        0.0000    18967.0313    11791     --- 
Elapsed time = 7.28 sec. (6986.22 ticks, tree = 0.02 MB, solutions = 1)
     24    68        cutoff              0.0000    18934.1473    13638     --- 
    160    83    18112.5326   178        0.0000    18877.9753    13739     --- 
    353    94    17581.2923   192        0.0000    18877.9753    13861     --- 
    536    58    16050.4348   141        0.0000    18877.9753    12995     --- 
    701   166    infeasible              0.0000    18877.9753    15196     --- 
    890   167     8890.3088    57        0.0000    18782.6637    14923     --- 
   1070   219     7346.2907    85        0.0000    18718.6481    17100     --- 
   1225   714     1273.9401    19        0.0000    18718.6481    31718     --- 
   1343   462     3508.6654    37        0.0000    18718.6481    21809     --- 
   1915   746        cutoff              0.0000    18718.6481    33830     --- 
Elapsed time = 27.97 sec. (10099.02 ticks, tree = 7.28 MB, solutions = 1)
   2476  1203      377.1502    28        0.0000    18718.6481    71444     --- 
   3103   946     1254.7256    27        0.0000    18506.2245    47691     --- 
   3735  1626        cutoff              0.0000    17862.5296   204047     --- 
   4441  1985      330.8259     4        0.0000     4351.6040   263342     --- 
   4917  1453        cutoff              0.0000     4351.6040   109810     --- 
   5293  1601      746.6502    14        0.0000     4351.6040   192069     --- 
   5680  1896      162.5676    22        0.0000     4351.6040   235642     --- 
   6105  1971      185.5348    15        0.0000     4351.6040   262325     --- 
   6422  1953      360.8802     9        0.0000     4351.6040   261262     --- 

Performing restart 1

Repeating presolve.
Tried aggregator 3 times.
MIP Presolve eliminated 1669 rows and 1524 columns.
MIP Presolve modified 79705 coefficients.
Aggregator did 459 substitutions.
Reduced MIP has 42540 rows, 36082 columns, and 116882 nonzeros.
Reduced MIP has 14194 binaries, 0 generals, 0 SOSs, and 0 indicators.
Presolve time = 0.20 sec. (172.48 ticks)
Tried aggregator 2 times.
MIP Presolve eliminated 882 rows and 740 columns.
MIP Presolve modified 21285 coefficients.
Aggregator did 4 substitutions.
Reduced MIP has 41654 rows, 35338 columns, and 114397 nonzeros.
Reduced MIP has 13824 binaries, 0 generals, 0 SOSs, and 0 indicators.
Presolve time = 0.08 sec. (68.93 ticks)
Tried aggregator 1 time.
MIP Presolve modified 19395 coefficients.
Reduced MIP has 41654 rows, 35338 columns, and 114397 nonzeros.
Reduced MIP has 13824 binaries, 0 generals, 0 SOSs, and 0 indicators.
Presolve time = 0.14 sec. (104.17 ticks)
Represolve time = 1.38 sec. (641.01 ticks)
   6475     0     1111.7358   195        0.0000     Cuts: 332   278536     --- 
   6475     0        cutoff              0.0000        0.0000   278553    0.00%
Elapsed time = 53.11 sec. (22780.62 ticks, tree = 0.01 MB, solutions = 1)

GUB cover cuts applied:  1
Cover cuts applied:  5
Implied bound cuts applied:  36
Flow cuts applied:  183
Mixed integer rounding cuts applied:  38
Gomory fractional cuts applied:  12

Root node processing (before b&c):
  Real time             =    5.39 sec. (6836.43 ticks)
Parallel b&c, 16 threads:
  Real time             =   47.73 sec. (15946.68 ticks)
  Sync time (average)   =    0.47 sec.
  Wait time (average)   =    0.00 sec.
                          ------------
Total (root+branch&cut) =   53.13 sec. (22783.11 ticks)

Solution pool: 1 solution saved.

MIP - Integer optimal solution:  Objective =  0.0000000000e+00
Solution time =   53.16 sec.  Iterations = 278553  Nodes = 6475
Deterministic time = 22783.42 ticks  (428.61 ticks/sec)

CPLEX> Incumbent solution written to file 'C:\Users\wenmi\Desktop\competitiveMPEC\logs\tmph23xhyq_.cplex.sol'.
CPLEX> Exporting results... 
